# Objective value = 164
WA1n 0
WA1p 0
WA2n 0
WA2p 1
WB1n 0
WB1p 0
WB2n 0
WB2p 1
WC1n 0
WC1p 1
WD1n 0
WD1p 1
WE1n 0
WE1p 1
WF1n 3
WF1p 0
WF2n 1
WF2p 0
WG1n 3
WG1p 0
WG2n 1
WG2p 0
WH1n 3
WH1p 0
WH2n 1
WH2p 0
WI1n 11
WI1p 0
WI2n 1
WI2p 0
WJ1n 0
WJ1p 11
WJ2n 0
WJ2p 1
WK1n 0
WK1p 11
WK2n 0
WK2p 1
WL1n 0
WL1p 11
WL2n 0
WL2p 1
WM1n 0
WM1p 49
WM2n 0
WM2p 1
WT1n 0
WT1p 39
5 7
a 0
b 1
c 0
d 1
e 1
f 1
g 1
h 0
i 0
j 0
k 0
l 0
m 0
n 0
o 0
p 1
q 1
r 1
s 1
t 1
u 1
v 1
w 1
x 1
